7032
5,107,95,82,103,98,1,87,76,73,48,63,96,30,34,7,84,8,89,124,35,93,52,126,33,92,54,46,138,134,105,111,16,59,121,79,78,15,133,77,131,122,14,80,21,88,94,10,113,3,62,149,125,22,104,4,150,115,44,71,45,128,68,119,91,106,13,64,112,136,74,123,145,72,147,49,144,31,27,129,41,39,57,117,140,60,66,17,130,148,11,61,36,69,127,118,24,12,116,101,38,23,32,67,43,109,51,20,25,81,110,47,120,139,53,40,42,9,28,6,37,2,29,86,19,99,114,102,108,70,135,50,137,132,85,142,18,65,55,58,141,83,90,56,146,26,75,97,143,100,5
